/*********************************************
    * Lab01 - FCD_FCR
    * Author: Coso
    * Creation Date: Mar, 2019
    *********************************************/
instance_name = "small_instance_04_FCD_FCR";

d = 2;
r = 3;

SCj = [147 165];
Fj = [1822, 4339];
Dk = [75 83 30];

Cjk = [[54 57 51]
 [41 79 77]];
Fjk = [[878 374 390]
 [454 493 808]];
